DATASET = "thpack4";
INSTANCE = "006";

WIDTH = 233;
HEIGHT = 220;
LENGTH = 587;

NO_OF_SHAPES = 10;
size = [|
  86,84,45 |
  81,45,34 |
  70,54,37 |
  71,61,52 |
  78,73,40 |
  69,63,46 |
  72,67,56 |
  75,75,36 |
  94,88,50 |
  65,51,50 |
|];

verticality = [|
  1,1,1 |
  0,1,1 |
  1,1,1 |
  1,1,1 |
  1,1,1 |
  1,1,1 |
  1,1,1 |
  0,0,1 |
  1,1,1 |
  1,1,1 |
|];

box_count = [
  18,
  19,
  13,
  16,
  10,
  13,
  10,
  8,
  12,
  13,
];
